; PUSH cw_3 DUP1 SLOAD DUP2 SWAP1 => PUSH cw_3 DUP1 PUSH cw_3 SLOAD
(set-option :produce-proofs true)
; 
(set-info :status unknown)
(declare-fun storage_t ((_ BitVec 256) (_ BitVec 256) Int (_ BitVec 256)) (_ BitVec 256))
(declare-fun w_3 () (_ BitVec 256))
(declare-fun storage_s ((_ BitVec 256) (_ BitVec 256) Int (_ BitVec 256)) (_ BitVec 256))
(declare-fun exc_halt_t (Int) Bool)
(declare-fun exc_halt_s (Int) Bool)
(declare-fun sc_t (Int) (_ BitVec 6))
(declare-fun stack_t ((_ BitVec 256) (_ BitVec 256) Int (_ BitVec 6)) (_ BitVec 256))
(declare-fun stack_s ((_ BitVec 256) (_ BitVec 256) Int (_ BitVec 6)) (_ BitVec 256))
(declare-fun sc_s (Int) (_ BitVec 6))
(declare-fun used_gas_t ((_ BitVec 256) (_ BitVec 256) Int) Int)
(declare-fun used_gas_s ((_ BitVec 256) (_ BitVec 256) Int) Int)
(assert
 (exists ((x_SLOAD_0 (_ BitVec 256)) )(let (($x4326 (forall ((w (_ BitVec 256)) )(let ((?x3463 (storage_t x_SLOAD_0 w_3 4 w)))
 (let ((?x1988 (storage_s x_SLOAD_0 w_3 5 w)))
 (= ?x1988 ?x3463))))
 ))
 (let (($x7854 (exc_halt_t 4)))
 (let (($x11317 (exc_halt_s 5)))
 (let (($x194 (= $x11317 $x7854)))
 (let (($x2443 (forall ((n (_ BitVec 6)) )(let ((?x4818 (sc_t 4)))
 (let (($x4903 (bvsle ?x4818 n)))
 (let ((?x5878 (stack_t x_SLOAD_0 w_3 4 n)))
 (let ((?x6963 (stack_s x_SLOAD_0 w_3 5 n)))
 (let (($x1064 (= ?x6963 ?x5878)))
 (or $x1064 $x4903)))))))
 ))
 (let ((?x4818 (sc_t 4)))
 (let ((?x4319 (sc_s 5)))
 (let (($x10474 (= ?x4319 ?x4818)))
 (let ((?x559 (used_gas_t x_SLOAD_0 w_3 0)))
 (let ((?x1709 (used_gas_s x_SLOAD_0 w_3 0)))
 (let (($x1500 (= ?x1709 ?x559)))
 (let (($x3110 (forall ((w (_ BitVec 256)) )(let ((?x5647 (storage_t x_SLOAD_0 w_3 0 w)))
 (let ((?x9108 (storage_s x_SLOAD_0 w_3 0 w)))
 (= ?x9108 ?x5647))))
 ))
 (let (($x56 (exc_halt_t 0)))
 (let (($x57 (exc_halt_s 0)))
 (let (($x58 (= $x57 $x56)))
 (let (($x9445 (forall ((n (_ BitVec 6)) )(let ((?x63 (sc_t 0)))
 (let (($x11399 (bvsle ?x63 n)))
 (let ((?x8769 (stack_t x_SLOAD_0 w_3 0 n)))
 (let ((?x2762 (stack_s x_SLOAD_0 w_3 0 n)))
 (let (($x2527 (= ?x2762 ?x8769)))
 (or $x2527 $x11399)))))))
 ))
 (let ((?x63 (sc_t 0)))
 (let ((?x72 (sc_s 0)))
 (let (($x73 (= ?x72 ?x63)))
 (let (($x8580 (= $x7854 (or (exc_halt_t 3) (not (bvsle (_ bv0 6) (bvadd (_ bv63 6) (sc_t 3))))))))
 (let (($x5410 (forall ((w (_ BitVec 256)) )(let ((?x11445 (storage_t x_SLOAD_0 w_3 3 w)))
 (let ((?x3463 (storage_t x_SLOAD_0 w_3 4 w)))
 (= ?x3463 ?x11445))))
 ))
 (let (($x2647 (forall ((n (_ BitVec 6)) )(or (bvsle (bvadd (_ bv63 6) (sc_t 3)) n) (= (stack_t x_SLOAD_0 w_3 4 n) (stack_t x_SLOAD_0 w_3 3 n))))
 ))
 (let ((?x11304 (sc_t 3)))
 (let (($x4143 (= ?x4818 ?x11304)))
 (let (($x5128 (= (used_gas_t x_SLOAD_0 w_3 4) (+ 200 (used_gas_t x_SLOAD_0 w_3 3)))))
 (let ((?x746 (storage_t x_SLOAD_0 w_3 3 (stack_t x_SLOAD_0 w_3 3 (bvadd (_ bv63 6) ?x11304)))))
 (let (($x9627 (exc_halt_t 2)))
 (let (($x4347 (or $x9627 (not (= ((_ extract 6 6) (bvadd (_ bv1 7) (concat (_ bv0 1) (sc_t 2)))) (_ bv0 1))))))
 (let (($x3614 (exc_halt_t 3)))
 (let (($x11312 (= $x3614 $x4347)))
 (let (($x767 (forall ((w (_ BitVec 256)) )(let ((?x6903 (storage_t x_SLOAD_0 w_3 2 w)))
 (let ((?x11445 (storage_t x_SLOAD_0 w_3 3 w)))
 (= ?x11445 ?x6903))))
 ))
 (let (($x2823 (forall ((n (_ BitVec 6)) )(let ((?x2714 (sc_t 2)))
 (let (($x9801 (bvsle ?x2714 n)))
 (or (= (stack_t x_SLOAD_0 w_3 3 n) (stack_t x_SLOAD_0 w_3 2 n)) $x9801))))
 ))
 (let (($x4773 (= ?x11304 (bvadd (_ bv1 6) (sc_t 2)))))
 (let ((?x5183 (used_gas_t x_SLOAD_0 w_3 3)))
 (let (($x11437 (not (= ((_ extract 6 6) (bvadd (_ bv1 7) (concat (_ bv0 1) (sc_t 1)))) (_ bv0 1)))))
 (let (($x8377 (exc_halt_t 1)))
 (let (($x7653 (not (bvsle (_ bv0 6) (bvadd (_ bv63 6) (sc_t 1))))))
 (let (($x4321 (forall ((w (_ BitVec 256)) )(let ((?x3886 (storage_t x_SLOAD_0 w_3 1 w)))
 (let ((?x6903 (storage_t x_SLOAD_0 w_3 2 w)))
 (= ?x6903 ?x3886))))
 ))
 (let (($x1993 (forall ((n (_ BitVec 6)) )(let ((?x7154 (sc_t 1)))
 (let ((?x11571 (bvadd (_ bv63 6) ?x7154)))
 (let (($x1842 (bvsle ?x11571 n)))
 (or $x1842 (= (stack_t x_SLOAD_0 w_3 2 n) (stack_t x_SLOAD_0 w_3 1 n)))))))
 ))
 (let ((?x2714 (sc_t 2)))
 (let (($x8876 (= ?x2714 (bvadd (_ bv1 6) (sc_t 1)))))
 (let ((?x4076 (used_gas_t x_SLOAD_0 w_3 2)))
 (let ((?x7154 (sc_t 1)))
 (let ((?x11571 (bvadd (_ bv63 6) ?x7154)))
 (let ((?x2491 (stack_t x_SLOAD_0 w_3 1 ?x11571)))
 (let (($x521 (= $x8377 (or $x56 (not (= ((_ extract 6 6) (bvadd (_ bv1 7) (concat (_ bv0 1) ?x63))) (_ bv0 1)))))))
 (let (($x11250 (forall ((w (_ BitVec 256)) )(let ((?x5647 (storage_t x_SLOAD_0 w_3 0 w)))
 (let ((?x3886 (storage_t x_SLOAD_0 w_3 1 w)))
 (= ?x3886 ?x5647))))
 ))
 (let (($x5801 (forall ((n (_ BitVec 6)) )(let ((?x63 (sc_t 0)))
 (let (($x11399 (bvsle ?x63 n)))
 (or (= (stack_t x_SLOAD_0 w_3 1 n) (stack_t x_SLOAD_0 w_3 0 n)) $x11399))))
 ))
 (let (($x3155 (= ?x7154 (bvadd (_ bv1 6) ?x63))))
 (let (($x4244 (= $x11317 (or (exc_halt_s 4) (not (bvsle (_ bv0 6) (bvadd (_ bv62 6) (sc_s 4))))))))
 (let (($x9196 (forall ((w (_ BitVec 256)) )(let ((?x1515 (storage_s x_SLOAD_0 w_3 4 w)))
 (let ((?x1988 (storage_s x_SLOAD_0 w_3 5 w)))
 (= ?x1988 ?x1515))))
 ))
 (let (($x4534 (forall ((n (_ BitVec 6)) )(let ((?x4305 (sc_s 4)))
 (let ((?x11444 (bvadd (_ bv62 6) ?x4305)))
 (let (($x6321 (bvsle ?x11444 n)))
 (or (= (stack_s x_SLOAD_0 w_3 5 n) (stack_s x_SLOAD_0 w_3 4 n)) $x6321)))))
 ))
 (let ((?x4305 (sc_s 4)))
 (let (($x3039 (= ?x4319 ?x4305)))
 (let (($x6535 (= (used_gas_s x_SLOAD_0 w_3 5) (+ 3 (used_gas_s x_SLOAD_0 w_3 4)))))
 (let ((?x4400 (bvadd (_ bv63 6) ?x4305)))
 (let ((?x5730 (stack_s x_SLOAD_0 w_3 4 ?x4400)))
 (let (($x10876 (= (stack_s x_SLOAD_0 w_3 5 (bvadd (_ bv63 6) ?x4319)) (stack_s x_SLOAD_0 w_3 4 (bvadd (_ bv62 6) ?x4305)))))
 (let (($x7126 (not (bvsle (_ bv0 6) (bvadd (_ bv62 6) (sc_s 3))))))
 (let (($x995 (not (= ((_ extract 6 6) (bvadd (_ bv1 7) (concat (_ bv0 1) (sc_s 3)))) (_ bv0 1)))))
 (let (($x292 (exc_halt_s 3)))
 (let (($x7172 (exc_halt_s 4)))
 (let (($x11663 (forall ((w (_ BitVec 256)) )(let ((?x10568 (storage_s x_SLOAD_0 w_3 3 w)))
 (let ((?x1515 (storage_s x_SLOAD_0 w_3 4 w)))
 (= ?x1515 ?x10568))))
 ))
 (let (($x11337 (forall ((n (_ BitVec 6)) )(let ((?x275 (sc_s 3)))
 (let ((?x2713 (bvadd (_ bv62 6) ?x275)))
 (let (($x6325 (bvsle ?x2713 n)))
 (or $x6325 (= (stack_s x_SLOAD_0 w_3 4 n) (stack_s x_SLOAD_0 w_3 3 n)))))))
 ))
 (let (($x9468 (= ?x4305 (bvadd (_ bv1 6) (sc_s 3)))))
 (let ((?x8794 (used_gas_s x_SLOAD_0 w_3 4)))
 (let ((?x275 (sc_s 3)))
 (let ((?x6326 (bvadd (_ bv63 6) ?x275)))
 (let ((?x9494 (stack_s x_SLOAD_0 w_3 3 ?x6326)))
 (let ((?x2713 (bvadd (_ bv62 6) ?x275)))
 (let ((?x10634 (stack_s x_SLOAD_0 w_3 3 ?x2713)))
 (let (($x11864 (= $x292 (or (exc_halt_s 2) (not (bvsle (_ bv0 6) (bvadd (_ bv63 6) (sc_s 2))))))))
 (let (($x3259 (forall ((w (_ BitVec 256)) )(let ((?x5888 (storage_s x_SLOAD_0 w_3 2 w)))
 (let ((?x10568 (storage_s x_SLOAD_0 w_3 3 w)))
 (= ?x10568 ?x5888))))
 ))
 (let (($x2937 (forall ((n (_ BitVec 6)) )(or (bvsle (bvadd (_ bv63 6) (sc_s 2)) n) (= (stack_s x_SLOAD_0 w_3 3 n) (stack_s x_SLOAD_0 w_3 2 n))))
 ))
 (let ((?x218 (sc_s 2)))
 (let (($x2385 (= ?x275 ?x218)))
 (let ((?x1099 (used_gas_s x_SLOAD_0 w_3 3)))
 (let ((?x5342 (bvadd (_ bv63 6) ?x218)))
 (let ((?x9754 (stack_s x_SLOAD_0 w_3 2 ?x5342)))
 (let (($x10607 (not (bvsle (_ bv0 6) (bvadd (_ bv63 6) (sc_s 1))))))
 (let (($x3809 (not (= ((_ extract 6 6) (bvadd (_ bv1 7) (concat (_ bv0 1) (sc_s 1)))) (_ bv0 1)))))
 (let (($x189 (exc_halt_s 1)))
 (let (($x247 (exc_halt_s 2)))
 (let (($x5782 (forall ((w (_ BitVec 256)) )(let ((?x4945 (storage_s x_SLOAD_0 w_3 1 w)))
 (let ((?x5888 (storage_s x_SLOAD_0 w_3 2 w)))
 (= ?x5888 ?x4945))))
 ))
 (let (($x7715 (forall ((n (_ BitVec 6)) )(let ((?x154 (sc_s 1)))
 (let ((?x354 (bvadd (_ bv63 6) ?x154)))
 (let (($x2119 (bvsle ?x354 n)))
 (or $x2119 (= (stack_s x_SLOAD_0 w_3 2 n) (stack_s x_SLOAD_0 w_3 1 n)))))))
 ))
 (let (($x10974 (= ?x218 (bvadd (_ bv1 6) (sc_s 1)))))
 (let ((?x9955 (used_gas_s x_SLOAD_0 w_3 2)))
 (let ((?x154 (sc_s 1)))
 (let ((?x354 (bvadd (_ bv63 6) ?x154)))
 (let ((?x9296 (stack_s x_SLOAD_0 w_3 1 ?x354)))
 (let (($x5870 (= $x189 (or $x57 (not (= ((_ extract 6 6) (bvadd (_ bv1 7) (concat (_ bv0 1) ?x72))) (_ bv0 1)))))))
 (let (($x10063 (forall ((w (_ BitVec 256)) )(let ((?x9108 (storage_s x_SLOAD_0 w_3 0 w)))
 (let ((?x4945 (storage_s x_SLOAD_0 w_3 1 w)))
 (= ?x4945 ?x9108))))
 ))
 (let (($x9525 (forall ((n (_ BitVec 6)) )(let ((?x72 (sc_s 0)))
 (let (($x11860 (bvsle ?x72 n)))
 (or (= (stack_s x_SLOAD_0 w_3 1 n) (stack_s x_SLOAD_0 w_3 0 n)) $x11860))))
 ))
 (let (($x11668 (= ?x154 (bvadd (_ bv1 6) ?x72))))
 (let (($x4677 (forall ((w (_ BitVec 256)) )(let ((?x7951 (ite (= w (stack_s x_SLOAD_0 w_3 2 (bvadd (_ bv63 6) (sc_s 2)))) x_SLOAD_0 (_ bv0 256))))
 (let ((?x9108 (storage_s x_SLOAD_0 w_3 0 w)))
 (= ?x9108 ?x7951))))
 ))
 (let (($x8200 (= ?x1709 0)))
 (let (($x11580 (not $x57)))
 (let (($x1074 (= ?x72 (_ bv0 6))))
 (and $x1074 $x11580 $x8200 $x4677 (= (stack_s x_SLOAD_0 w_3 1 ?x72) w_3) (= (used_gas_s x_SLOAD_0 w_3 1) (+ 3 ?x1709)) $x11668 $x9525 $x10063 $x5870 (= ?x9754 ?x9296) (= (stack_s x_SLOAD_0 w_3 2 ?x354) ?x9296) (= ?x9955 (+ 3 (used_gas_s x_SLOAD_0 w_3 1))) $x10974 $x7715 $x5782 (= $x247 (or $x189 $x3809 $x10607)) (= ?x9494 (storage_s x_SLOAD_0 w_3 2 ?x9754)) (= ?x1099 (+ 200 ?x9955)) $x2385 $x2937 $x3259 $x11864 (= ?x5730 ?x10634) (= (stack_s x_SLOAD_0 w_3 4 ?x2713) ?x10634) (= (stack_s x_SLOAD_0 w_3 4 ?x6326) ?x9494) (= ?x8794 (+ 3 ?x1099)) $x9468 $x11337 $x11663 (= $x7172 (or $x292 $x995 $x7126)) $x10876 (= (stack_s x_SLOAD_0 w_3 5 (bvadd (_ bv62 6) ?x4319)) ?x5730) $x6535 $x3039 $x4534 $x9196 $x4244 (= (stack_t x_SLOAD_0 w_3 1 ?x63) w_3) (= (used_gas_t x_SLOAD_0 w_3 1) (+ 3 ?x559)) $x3155 $x5801 $x11250 $x521 (= (stack_t x_SLOAD_0 w_3 2 (bvadd (_ bv63 6) ?x2714)) ?x2491) (= (stack_t x_SLOAD_0 w_3 2 ?x11571) ?x2491) (= ?x4076 (+ 3 (used_gas_t x_SLOAD_0 w_3 1))) $x8876 $x1993 $x4321 (= $x9627 (or $x7653 $x8377 $x11437)) (= (stack_t x_SLOAD_0 w_3 3 ?x2714) w_3) (= ?x5183 (+ 3 ?x4076)) $x4773 $x2823 $x767 $x11312 (= (stack_t x_SLOAD_0 w_3 4 (bvadd (_ bv63 6) ?x4818)) ?x746) $x5128 $x4143 $x2647 $x5410 $x8580 $x73 $x9445 $x58 $x3110 $x1500 (not (and $x10474 $x2443 $x194 $x4326))))))))))))))))))))))))))))))))))))))))))))))))))))))))))))))))))))))))))))))))))))))))))))))))))))))
 )
(check-sat)
(get-proof)
